Route #1: 7 11 6 30 24 52 14 10
Route #2: 66 67 36 38 58 13 49
Route #3: 2 8 43 68 78 75 59 74 51
Route #4: 73 42 12 44 27 60 41 46
Route #5: 64 25 20 61 16 19 65 35 56 69 47 15 33
Route #6: 62 34 79 48 18 28
Route #7: 40 21 63 23 5 1
Route #8: 70 72 54 9 55 26 57 37 71
Route #9: 53 76 32 50 45 22 4
Route #10: 17 31 29 3 39 77
cost 2195.562255859375